N = 85;
F = 3;
MaxItemsPerDay = 8;
MaxDay = 50;
name = ["i1", "i2", "i3", "i4", "i5", "i6", "i7", "i8", "i9", "i10", "i11", "i12", "i13", "i14", "i15", "i16", "i17", "i18", "i19", "i20", "i21", "i22", "i23", "i24", "i25", "i26", "i27", "i28", "i29", "i30", "i31", "i32", "i33", "i34", "i35", "i36", "i37", "i38", "i39", "i40", "i41", "i42", "i43", "i44", "i45", "i46", "i47", "i48", "i49", "i50", "i51", "i52", "i53", "i54", "i55", "i56", "i57", "i58", "i59", "i60", "i61", "i62", "i63", "i64", "i65", "i66", "i67", "i68", "i69", "i70", "i71", "i72", "i73", "i74", "i75", "i76", "i77", "i78", "i79", "i80", "i81", "i82", "i83", "i84", "i85"];
kind = [1, 2, 16, 14, 2, 8, 4, 7, 10, 20, 18, 9, 6, 19, 14, 14, 10, 7, 3, 8, 16, 1, 15, 19, 20, 10, 20, 18, 2, 7, 8, 9, 3, 13, 1, 4, 10, 3, 10, 4, 9, 16, 5, 2, 20, 8, 4, 16, 3, 18, 9, 13, 7, 8, 9, 15, 9, 17, 15, 11, 20, 5, 2, 17, 1, 13, 5, 15, 3, 15, 1, 19, 17, 1, 4, 2, 3, 15, 10, 6, 5, 4, 17, 5, 20];
facility = [
  { 1 },
  { 1, 2 },
  { 3 },
  { 1 },
  { 1, 2 },
  { 1, 3 },
  { 1 },
  { 3 },
  { 1, 3 },
  { 1, 3 },
  { 1 },
  { 1, 3 },
  { 1, 2 },
  { 1 },
  { 1 },
  { 3 },
  { 1, 3 },
  { 1, 2 },
  { 1, 2, 3 },
  { 2 },
  { 2 },
  { 1, 3 },
  { 1, 3 },
  { 1 },
  { 1 },
  { 3 },
  { 2 },
  { 3 },
  { 2 },
  { 1 },
  { 2, 3 },
  { 3 },
  { 2, 3 },
  { 2, 3 },
  { 1, 2 },
  { 1 },
  { 2, 3 },
  { 2, 3 },
  { 1, 3 },
  { 1, 2, 3 },
  { 2, 3 },
  { 2, 3 },
  { 3 },
  { 1, 2 },
  { 3 },
  { 1 },
  { 2 },
  { 2, 3 },
  { 1, 3 },
  { 2 },
  { 1, 2 },
  { 3 },
  { 1, 2 },
  { 2 },
  { 1, 2, 3 },
  { 1, 2, 3 },
  { 1, 2 },
  { 3 },
  { 1, 3 },
  { 1, 2 },
  { 1 },
  { 3 },
  { 1, 2, 3 },
  { 1, 3 },
  { 1, 3 },
  { 1 },
  { 1, 2 },
  { 2, 3 },
  { 2, 3 },
  { 1, 2, 3 },
  { 1, 3 },
  { 2, 3 },
  { 2 },
  { 1, 3 },
  { 3 },
  { 2, 3 },
  { 2, 3 },
  { 1 },
  { 1 },
  { 1, 2, 3 },
  { 2 },
  { 2, 3 },
  { 1, 2 },
  { 1, 3 },
  { 2, 3 }
];
producedDay = [25, 25, 25, 25, 25, 25, 25, 22, 22, 25, 25, 25, 25, 22, 19, 25, 25, 10, 25, 9, 25, 2, 25, 10, 25, 16, 25, 25, 25, 1, 25, 25, 25, 25, 25, 15, 23, 13, 25, 25, 6, 25, 25, 25, 25, 25, 25, 25, 17, 25, 25, 25, 25, 25, 25, 25, 25, 25, 25, 25, 25, 25, 25, 25, 11, 25, 25, 25, 25, 25, 25, 25, 25, 25, 25, 25, 14, 1, 25, 25, 25, 4, 25, 20, 25];
deadLineDay = [50, 50, 26, 50, 50, 50, 33, 32, 28, 47, 50, 26, 50, 28, 50, 40, 50, 13, 50, 50, 50, 45, 50, 40, 50, 29, 39, 50, 50, 20, 49, 48, 44, 50, 50, 35, 24, 47, 50, 49, 44, 44, 41, 48, 50, 27, 50, 44, 50, 50, 50, 40, 50, 50, 50, 50, 38, 50, 39, 50, 50, 26, 46, 42, 50, 42, 27, 50, 50, 50, 41, 43, 50, 33, 50, 30, 23, 16, 39, 50, 50, 37, 50, 50, 50];
